
List of user-set options:

                                    Name   Value                used
                           compl_inf_tol = 1                     yes
                         constr_viol_tol = 1                     yes
                            dual_inf_tol = 1000                  yes
                           linear_solver = ma97                  yes
                              ma86_small = 1e-30                  no
                                  ma86_u = 0.0001                 no
                              ma97_order = best                  yes
                              ma97_small = 1e-30                 yes
                            ma97_switch1 = at_start              yes
                            ma97_switch2 = od_hd_reuse           yes
                                  ma97_u = 1e-06                 yes
                               ma97_umax = 0.5                   yes
                                max_iter = 2000                  yes
                    max_refinement_steps = 20                    yes
                    min_refinement_steps = 5                     yes
                                 mu_init = 1e-06                 yes
           mu_superlinear_decrease_power = 1.25                  yes
                   nlp_scaling_min_value = 1e-08                 yes
                        option_file_name = Preset_Case:_345_NCP.opt  yes
                             output_file = ./tmp/Preset_Case:_345_NCP.output  yes
                      print_user_options = yes                   yes
        required_infeasibility_reduction = 1                      no
                                     tol = 1e-08                 yes
                   warm_start_bound_frac = 1e-20                 yes
                   warm_start_bound_push = 1e-20                 yes
                   warm_start_init_point = yes                   yes
              warm_start_mult_bound_push = 1e-20                 yes
                warm_start_mult_init_max = 1e+40                 yes
             warm_start_slack_bound_frac = 1e-20                 yes
             warm_start_slack_bound_push = 1e-20                 yes

******************************************************************************
This program contains Ipopt, a library for large-scale nonlinear optimization.
 Ipopt is released as open source code under the Eclipse Public License (EPL).
         For more information visit http://projects.coin-or.org/Ipopt
******************************************************************************

This is Ipopt version 3.12.10, running with linear solver ma97.

Number of nonzeros in equality constraint Jacobian...:   117140
Number of nonzeros in inequality constraint Jacobian.:      213
Number of nonzeros in Lagrangian Hessian.............:    47462

Total number of variables............................:    29971
                     variables with only lower bounds:    11312
                variables with lower and upper bounds:    15132
                     variables with only upper bounds:        0
Total number of equality constraints.................:    29864
Total number of inequality constraints...............:       25
        inequality constraints with only lower bounds:        4
   inequality constraints with lower and upper bounds:        0
        inequality constraints with only upper bounds:       21

iter    objective    inf_pr   inf_du lg(mu)  ||d||  lg(rg) alpha_du alpha_pr  ls
   0 -3.1955088e-02 2.35e-01 7.25e+01  -6.0 0.00e+00    -  0.00e+00 0.00e+00   0
In iteration 0, 3 Slacks too small, adjusting variable bounds
   1 -3.1955088e-02 2.35e-01 7.25e+01  -6.0 9.00e+02   2.0 1.79e-08 5.28e-13f  1
In iteration 1, 1 Slack too small, adjusting variable bound
   2 -3.1955088e-02 2.35e-01 2.16e+02  -6.0 8.84e+01   1.5 3.48e-08 4.89e-12h  1
In iteration 2, 1 Slack too small, adjusting variable bound
   3 -3.1955088e-02 2.35e-01 7.25e+01  -6.0 8.33e+02   1.0 3.16e-10 8.82e-09f  1
   4 -3.1955088e-02 2.35e-01 9.54e+02  -6.0 9.73e+02   0.6 1.53e-07 2.25e-08f  1
In iteration 4, 1 Slack too small, adjusting variable bound
   5 -3.1955101e-02 2.35e-01 1.88e+02  -6.0 1.07e+03   0.1 4.41e-08 5.15e-07f  1
   6 -3.1955142e-02 2.35e-01 9.30e+02  -6.0 1.07e+03  -0.4 7.38e-07 1.66e-06h  1
   7 -3.1955306e-02 2.35e-01 1.94e+03  -6.0 1.07e+03  -0.9 2.45e-06 6.21e-06f  1
   8 -3.1955659e-02 2.35e-01 1.85e+03  -6.0 1.07e+03  -1.3 1.46e-05 1.35e-05f  1
   9 -3.1960900e-02 2.35e-01 6.36e+03  -6.0 1.07e+03  -1.8 4.78e-05 1.99e-04f  1
iter    objective    inf_pr   inf_du lg(mu)  ||d||  lg(rg) alpha_du alpha_pr  ls
  10 -3.1962038e-02 2.35e-01 1.89e+04  -6.0 1.07e+03  -1.4 3.61e-04 4.31e-05h  1
  11 -3.2026341e-02 2.34e-01 2.80e+04  -6.0 1.07e+03  -1.9 6.42e-04 2.42e-03f  1
  12 -3.2038140e-02 2.34e-01 1.93e+05  -6.0 1.04e+03  -1.4 3.80e-03 4.33e-04f  1
  13 -3.2369045e-02 2.32e-01 2.14e+05  -6.0 1.03e+03  -1.9 3.84e-03 1.16e-02f  1
  14 -3.2417859e-02 2.31e-01 1.34e+06  -6.0 8.66e+02  -1.5 3.50e-02 1.96e-03f  1
  15 -3.2464477e-02 2.30e-01 1.34e+06  -6.0 8.23e+02  -2.0 1.66e-03 1.68e-03h  1
  16 -3.2827521e-02 2.24e-01 1.11e+06  -6.0 8.20e+02  -1.5 7.77e-03 1.49e-02f  1
  17r-3.2827521e-02 2.24e-01 1.00e+03  -0.6 0.00e+00  -2.0 0.00e+00 1.30e-08R  2
  18r-3.2814057e-02 2.23e-01 1.00e+03  -0.6 1.09e+06    -  1.91e-07 5.43e-08f  1
  19r-3.2814057e-02 2.23e-01 9.99e+02  -0.6 0.00e+00    -  0.00e+00 2.28e-07R  2
iter    objective    inf_pr   inf_du lg(mu)  ||d||  lg(rg) alpha_du alpha_pr  ls
  20r-3.2815128e-02 2.23e-01 9.99e+02  -0.6 1.77e+04    -  9.31e-07 8.33e-08f  1
  21 -3.2815042e-02 2.23e-01 4.66e+02  -6.0 3.63e+02    -  9.22e-03 1.98e-05h  1
  22 -3.2817921e-02 2.23e-01 1.09e+04  -6.0 6.12e+02    -  4.78e-03 2.30e-04h  1
  23 -3.2842193e-02 2.12e-01 3.29e+03  -6.0 5.78e+02    -  7.36e-04 7.78e-03h  2
  24 -3.2883098e-02 2.03e-01 1.70e+04  -6.0 5.11e+02    -  2.20e-02 6.91e-03h  2
  25 -3.2939177e-02 1.92e-01 1.97e+04  -6.0 4.72e+02    -  1.31e-02 9.16e-03h  1
  26 -3.2978773e-02 1.80e-01 3.56e+05  -6.0 4.26e+02    -  4.92e-02 9.77e-03h  1
  27 -3.3327035e-02 1.27e-01 2.78e+05  -6.0 3.91e+02    -  4.97e-02 5.77e-02h  1
  28 -3.3524190e-02 1.40e-01 3.55e+05  -6.0 2.42e+02    -  6.79e-02 5.28e-02h  2
  29 -3.3555210e-02 1.39e-01 7.37e+05  -6.0 2.18e+02    -  8.92e-02 1.63e-02h  3
iter    objective    inf_pr   inf_du lg(mu)  ||d||  lg(rg) alpha_du alpha_pr  ls
  30 -3.3562677e-02 1.38e-01 1.31e+06  -6.0 2.21e+02    -  1.33e-01 9.16e-03h  4
  31 -3.3563185e-02 1.37e-01 2.09e+06  -6.0 2.25e+02    -  2.11e-01 5.17e-04h  9
  32 -3.3563780e-02 1.37e-01 2.14e+06  -6.0 2.33e+02    -  2.29e-02 4.22e-04h 10
  33 -3.3564116e-02 1.37e-01 2.69e+06  -6.0 2.33e+02    -  2.64e-01 2.13e-04h 11
  34 -3.4648621e-02 7.44e-01 1.87e+06  -6.0 2.35e+02    -  1.98e-02 2.52e-01h  1
  35 -3.4648806e-02 7.44e-01 1.77e+06  -6.0 1.72e+02    -  3.85e-01 5.41e-05h  1
  36 -3.4882838e-02 7.24e-01 1.59e+06  -6.0 1.78e+02    -  1.40e-01 5.76e-02h  1
  37 -3.6164336e-02 1.13e+00 5.30e+06  -6.0 1.78e+02    -  1.08e-02 2.59e-01h  1
  38 -3.6189313e-02 1.13e+00 5.26e+06  -6.0 1.01e+02    -  1.74e-03 8.13e-03h  1
  39 -3.6216848e-02 1.11e+00 5.19e+06  -6.0 1.60e+02    -  7.64e-04 1.36e-02h  1
iter    objective    inf_pr   inf_du lg(mu)  ||d||  lg(rg) alpha_du alpha_pr  ls
  40 -3.6391080e-02 1.14e+00 4.71e+06  -6.0 1.53e+02    -  1.45e-02 9.02e-02h  1
  41 -3.6693225e-02 1.27e+00 3.03e+06  -6.0 1.14e+02    -  5.23e-01 4.41e-01H  1
  42 -3.6581438e-02 1.23e+00 2.94e+06  -6.0 9.47e+01    -  1.87e-01 3.05e-02h  5
  43 -3.6581368e-02 1.23e+00 2.94e+06  -6.0 4.42e+01  -2.5 1.97e-03 6.32e-05h  2
  44 -3.8871476e-02 9.73e-01 2.21e+06  -6.0 1.63e+02    -  7.15e-03 2.44e-01f  1
  45 -3.8874107e-02 9.72e-01 2.22e+06  -6.0 1.74e+01  -3.0 1.53e-01 6.95e-04h  1
  46 -3.9451688e-02 8.37e-01 2.00e+06  -6.0 3.25e+01    -  4.77e-03 1.31e-01f  1
  47 -3.9454565e-02 8.35e-01 2.15e+06  -6.0 4.17e+01  -3.5 1.19e-01 2.83e-03h  1
  48 -4.0204162e-02 5.83e-01 2.42e+06  -6.0 3.78e+01    -  5.26e-03 2.63e-01f  1
  49 -4.1872885e-02 6.75e+00 2.39e+07  -6.0 2.47e+01  -3.9 3.06e-03 7.37e-01h  1
iter    objective    inf_pr   inf_du lg(mu)  ||d||  lg(rg) alpha_du alpha_pr  ls
  50 -4.2500433e-02 3.56e+00 1.78e+07  -6.0 1.02e+02  -4.4 3.07e-02 2.42e-01h  1
  51 -4.2607977e-02 3.37e+00 1.69e+07  -6.0 7.58e+01    -  1.32e-05 5.21e-02h  1
  52 -4.4743760e-02 5.54e-01 1.77e+06  -6.0 2.88e+01    -  1.61e-02 8.66e-01f  1
  53r-4.4743760e-02 5.54e-01 1.00e+03  -0.8 0.00e+00    -  0.00e+00 3.57e-07R  4
  54r-4.4703460e-02 5.46e-01 1.11e+03  -0.8 1.56e+03    -  8.35e-06 1.53e-05f  1
  55 -4.4670255e-02 4.92e-01 5.89e+06  -6.0 3.79e+00    -  3.88e-02 9.81e-02h  1
  56 -4.4518276e-02 2.21e-01 1.50e+07  -6.0 3.32e+00    -  9.81e-02 5.48e-01h  1
  57 -4.4504722e-02 1.75e-01 1.18e+07  -6.0 1.29e+00    -  7.28e-01 2.11e-01h  1
  58 -4.4478697e-02 1.25e-03 4.14e+01  -6.0 8.66e-01    -  8.81e-01 1.00e+00h  1
  59 -4.4855698e-02 2.46e-04 1.39e+01  -6.0 2.19e+00    -  8.49e-01 1.00e+00h  1
iter    objective    inf_pr   inf_du lg(mu)  ||d||  lg(rg) alpha_du alpha_pr  ls
  60 -4.6104822e-02 3.37e-03 1.23e+01  -6.0 9.14e+00    -  1.72e-01 9.85e-01h  1
  61 -4.6418517e-02 5.49e-02 5.77e+01  -6.0 6.38e+00    -  1.21e-04 6.64e-01h  1
  62 -4.6891936e-02 8.64e-02 3.85e+00  -6.0 5.93e+00    -  8.39e-01 1.00e+00h  1
  63 -4.8990869e-02 2.82e-01 8.47e+00  -6.0 3.70e+01    -  3.28e-01 8.00e-01H  1
  64 -5.0853483e-02 9.56e-01 1.77e+01  -6.0 5.75e+01    -  2.69e-01 6.42e-01f  1
  65 -5.1102995e-02 8.92e-01 4.17e+01  -6.0 7.83e+01    -  4.21e-01 7.75e-02h  1
  66 -5.2254043e-02 9.18e-01 4.58e+01  -6.0 1.30e+02    -  1.49e-01 2.37e-01h  1
  67 -5.3867585e-02 1.64e+00 4.87e+01  -6.0 1.36e+02    -  1.62e-01 3.38e-01h  1
  68 -5.4861478e-02 1.85e+00 2.33e+06  -6.0 1.76e+02    -  2.46e-06 1.73e-01h  1
  69 -5.7123337e-02 3.79e+00 1.31e+06  -6.0 1.68e+02    -  2.80e-01 4.36e-01h  1
iter    objective    inf_pr   inf_du lg(mu)  ||d||  lg(rg) alpha_du alpha_pr  ls
  70 -5.8579943e-02 4.01e+00 9.40e+05  -6.0 2.26e+02    -  3.85e-01 2.83e-01h  1
  71 -5.9989089e-02 4.40e+00 7.76e+05  -6.0 4.17e+02    -  3.30e-01 1.75e-01h  1
  72 -6.0204630e-02 4.38e+00 7.72e+05  -6.0 1.85e+03    -  2.77e-02 5.36e-03h  1
  73 -6.0652604e-02 4.36e+00 7.50e+05  -6.0 8.35e+02    -  3.65e-03 3.26e-02h  1
  74 -6.4887223e-02 9.23e+00 5.72e+05  -6.0 8.39e+02    -  3.34e-02 2.43e-01h  1
  75 -6.5351843e-02 9.17e+00 5.70e+05  -6.0 3.42e+03    -  1.13e-03 6.61e-03h  1
  76 -6.5786115e-02 9.04e+00 5.60e+05  -6.0 1.78e+03    -  6.51e-02 1.80e-02h  1
  77 -6.8472270e-02 8.65e+00 4.80e+05  -6.0 1.02e+03    -  3.22e-01 1.40e-01h  1
  78 -7.3786323e-02 6.95e+00 3.84e+05  -6.0 1.61e+03    -  5.45e-01 1.95e-01h  1
  79 -7.6529688e-02 7.42e+00 3.79e+05  -6.0 1.16e+04    -  1.61e-02 1.10e-02h  1
iter    objective    inf_pr   inf_du lg(mu)  ||d||  lg(rg) alpha_du alpha_pr  ls
  80 -8.0346400e-02 6.55e+00 3.36e+05  -6.0 2.12e+03    -  3.43e-01 1.13e-01h  1
  81 -8.1818883e-02 6.84e+01 3.35e+05  -6.0 1.08e+06    -  4.52e-04 1.57e-03h  1
  82 -8.7739414e-02 6.15e+01 2.72e+05  -6.0 2.90e+03    -  1.54e-01 1.88e-01h  1
  83 -8.9553527e-02 6.38e+01 2.70e+05  -6.0 9.18e+04    -  6.93e-03 7.31e-03h  1
  84 -8.9592154e-02 6.31e+01 2.67e+05  -6.0 1.67e+01  -4.9 2.87e-03 1.07e-02h  1
  85 -8.9715376e-02 6.09e+01 2.57e+05  -6.0 2.26e+01  -5.4 1.52e-02 3.59e-02h  1
  86 -9.0368694e-02 4.86e+01 2.06e+05  -6.0 2.31e+01  -5.8 3.22e-01 2.01e-01h  1
  87 -9.2955422e-02 5.86e-01 6.57e+02  -6.0 1.88e+01  -6.3 2.87e-01 1.00e+00h  1
  88 -9.3038927e-02 4.56e-01 5.00e+02  -6.0 3.11e+01  -6.8 4.76e-01 2.37e-01h  1
  89 -9.3999802e-02 2.30e-01 3.80e+01  -6.0 8.85e+01  -7.3 8.65e-01 8.89e-01h  1
iter    objective    inf_pr   inf_du lg(mu)  ||d||  lg(rg) alpha_du alpha_pr  ls
  90 -9.4790803e-02 3.25e-01 9.98e+02  -6.0 2.63e+02  -7.7 4.07e-01 2.61e-01h  1
  91 -9.6368947e-02 5.37e-01 4.94e+02  -6.0 6.50e+02  -8.2 1.75e-01 2.07e-01h  1
  92 -9.9822094e-02 3.39e+00 5.93e+03  -6.0 2.07e+03  -8.7 6.10e-01 1.88e-01h  1
  93 -1.0615083e-01 6.00e+00 6.50e+03  -6.0 6.20e+02  -8.3 4.29e-01 8.69e-01h  1
  94 -1.0718208e-01 5.62e+00 2.24e+06  -6.0 3.39e+03  -8.8 6.10e-04 6.30e-02h  1
  95 -1.0823240e-01 4.60e+00 1.80e+06  -6.0 7.85e+02  -8.3 4.38e-02 1.97e-01h  1
  96 -1.1028688e-01 6.09e+00 1.45e+06  -6.0 2.00e+03  -8.8 2.06e-01 1.93e-01h  1
  97 -1.1416276e-01 6.22e+00 1.89e+02  -6.0 5.59e+02  -8.4 5.09e-01 1.00e+00h  1
  98 -1.1516694e-01 6.51e+00 1.68e+02  -6.0 1.96e+03  -8.9 1.21e-01 1.16e-01h  1
  99 -1.1626118e-01 8.42e+00 1.61e+02  -6.0 7.15e+03  -9.3 1.03e-01 4.71e-02h  1
iter    objective    inf_pr   inf_du lg(mu)  ||d||  lg(rg) alpha_du alpha_pr  ls
 100 -1.1863307e-01 9.15e+00 1.13e+02  -6.0 1.21e+03  -8.9 5.97e-01 3.75e-01h  1
 101 -1.1864371e-01 9.11e+00 1.13e+02  -6.0 2.22e+03  -9.4 9.44e-02 4.69e-03h  1
 102 -1.2153191e-01 1.81e+01 1.48e+02  -6.0 5.43e+03  -9.9 2.86e-01 1.63e-01f  1
 103 -1.2272755e-01 1.99e+01 1.54e+02  -6.0 6.33e+03 -10.3 1.21e-02 5.99e-02h  1
 104 -1.2502527e-01 1.51e+01 1.06e+02  -6.0 2.40e+03  -9.9 7.06e-02 2.52e-01h  1
 105 -1.2536085e-01 1.47e+01 1.04e+02  -6.0 4.60e+03 -10.4 8.86e-02 2.67e-02h  1
 106 -1.2553963e-01 1.45e+01 1.02e+02  -6.0 5.49e+03 -10.9 3.75e-03 1.62e-02h  1
 107 -1.2610761e-01 1.30e+01 9.10e+01  -6.0 2.71e+03 -10.4 2.72e-01 1.07e-01h  1
 108 -1.2671476e-01 8.17e+00 5.71e+01  -6.0 5.67e+02  -9.1 1.58e-01 3.71e-01h  1
 109 -1.2710315e-01 6.29e+00 4.35e+01  -6.0 9.54e+02  -9.6 1.73e-01 2.31e-01h  1
iter    objective    inf_pr   inf_du lg(mu)  ||d||  lg(rg) alpha_du alpha_pr  ls
 110 -1.2788315e-01 4.19e+00 7.61e+01  -6.0 2.58e+03 -10.1 4.47e-01 3.33e-01h  1
 111 -1.2896743e-01 2.49e+00 5.89e+02  -6.0 1.17e+03  -9.6 3.53e-01 1.00e+00h  1
 112 -1.2920669e-01 1.89e+00 1.22e+02  -6.0 5.01e+02  -9.2 4.11e-01 2.89e-01h  1
 113 -1.2958401e-01 5.72e-01 2.36e+02  -6.0 1.96e+02  -8.8 1.00e+00 7.92e-01h  1
 114 -1.2985721e-01 1.41e-01 7.82e+03  -6.0 1.15e+02  -8.4 2.67e-01 9.20e-01h  1
 115 -1.3012058e-01 1.90e-01 6.20e+01  -6.0 2.12e+02  -8.8 1.00e+00 1.00e+00f  1
 116 -1.3021087e-01 1.91e-01 5.71e+01  -6.0 1.52e+03  -9.3 8.42e-02 8.27e-02h  1
 117 -1.3065385e-01 9.79e-01 5.30e+01  -6.0 3.39e+03  -9.8 1.48e-01 1.46e-01h  1
 118 -1.3066067e-01 9.46e-01 5.11e+01  -6.0 3.70e+02  -8.5 3.95e-02 3.37e-02h  1
 119 -1.3067289e-01 9.14e-01 4.92e+01  -6.0 2.67e+02  -8.9 3.97e-02 3.45e-02h  1
iter    objective    inf_pr   inf_du lg(mu)  ||d||  lg(rg) alpha_du alpha_pr  ls
 120 -1.3097888e-01 1.32e+00 1.26e+02  -6.0 9.55e+02  -9.4 2.29e-01 4.59e-01f  1
 121 -1.3099210e-01 1.03e+00 6.08e+01  -6.0 5.60e+01  -6.3 6.33e-01 2.25e-01h  1
 122 -1.3101799e-01 1.80e-01 3.92e+01  -6.0 5.25e+00  -6.8 5.73e-01 8.95e-01h  1
 123 -1.3108526e-01 9.49e-03 6.80e+00  -6.0 8.81e+00  -7.2 9.58e-01 1.00e+00h  1
 124 -1.3116812e-01 2.20e-02 5.92e+00  -6.0 2.69e+01  -7.7 8.81e-01 1.00e+00h  1
 125 -1.3132109e-01 2.46e-01 5.12e+00  -6.0 8.89e+01  -8.2 1.00e+00 1.00e+00h  1
 126 -1.3178372e-01 4.63e+00 8.39e+00  -6.0 3.74e+02  -8.7 7.31e-01 1.00e+00h  1
 127 -1.3213296e-01 6.42e+00 1.02e+01  -6.0 1.84e+02  -8.2 1.00e+00 1.00e+00h  1
 128 -1.3224144e-01 7.06e+00 9.72e+01  -6.0 2.00e+03  -8.7 2.37e-01 2.74e-02h  1
 129 -1.3223829e-01 6.33e+00 9.04e+01  -6.0 3.62e+01  -6.5 7.77e-02 1.04e-01h  1
iter    objective    inf_pr   inf_du lg(mu)  ||d||  lg(rg) alpha_du alpha_pr  ls
 130 -1.3225602e-01 2.23e-02 2.21e+00  -6.0 7.16e+00  -7.0 1.00e+00 1.00e+00h  1
 131 -1.3226245e-01 2.75e-03 2.30e-01  -6.0 1.77e+01  -7.4 1.00e+00 1.00e+00h  1
 132 -1.3228258e-01 6.27e-03 2.27e-02  -6.0 5.05e+01  -7.9 1.00e+00 1.00e+00h  1
 133 -1.3238834e-01 1.01e-01 1.65e-01  -6.0 1.45e+02  -8.4 1.00e+00 1.00e+00h  1
 134 -1.3277075e-01 1.20e+00 1.52e+00  -6.0 4.14e+02  -8.9 1.00e+00 1.00e+00h  1
 135 -1.3360204e-01 5.38e+00 4.50e+00  -6.0 8.25e+02  -9.3 7.76e-01 1.00e+00h  1
 136 -1.3407884e-01 4.84e+00 3.17e+01  -6.0 7.41e+02  -9.8 4.90e-01 1.00e+00h  1
 137 -1.3411074e-01 2.57e-02 4.25e-01  -6.0 8.81e+01  -8.5 1.00e+00 1.00e+00h  1
 138 -1.3416739e-01 9.64e-02 2.70e-01  -6.0 8.50e+01  -9.0 1.00e+00 1.00e+00h  1
 139 -1.3424827e-01 9.62e-01 1.19e+00  -6.0 2.68e+02  -9.5 1.00e+00 1.00e+00h  1
iter    objective    inf_pr   inf_du lg(mu)  ||d||  lg(rg) alpha_du alpha_pr  ls
 140 -1.3434133e-01 8.95e+00 9.22e+00  -6.0 9.02e+02  -9.9 1.00e+00 8.98e-01h  1
 141 -1.3442389e-01 5.29e+01 3.44e+01  -6.0 3.29e+03 -10.4 3.49e-01 5.72e-01h  1
 142 -1.3443212e-01 5.14e+01 3.35e+01  -6.0 5.16e+03    -  9.26e-02 2.87e-02H  1
 143 -1.3442286e-01 2.97e+01 7.70e+01  -6.0 1.59e+03    -  7.20e-02 1.00e+00h  1
 144 -1.3443416e-01 2.97e+01 5.43e+01  -6.0 1.10e+04 -10.0 1.08e-01 2.06e-02h  1
 145 -1.3448143e-01 3.11e+01 1.47e+01  -6.0 1.62e+03  -9.6 2.73e-01 1.00e+00h  1
 146 -1.3449689e-01 2.69e+01 1.18e+01  -6.0 1.62e+03 -10.0 2.81e-01 1.59e-01h  1
 147 -1.3453450e-01 3.19e+00 2.89e+01  -6.0 4.49e+02  -9.6 1.00e+00 1.00e+00h  1
 148 -1.3458432e-01 5.18e-01 1.01e+01  -6.0 1.77e+02  -9.2 1.00e+00 1.00e+00h  1
 149 -1.3466233e-01 1.21e+00 4.08e+01  -6.0 2.56e+03  -9.7 1.12e-01 8.37e-02h  1
iter    objective    inf_pr   inf_du lg(mu)  ||d||  lg(rg) alpha_du alpha_pr  ls
 150 -1.3466418e-01 1.14e+00 9.13e-01  -6.0 2.65e+02  -9.2 1.00e+00 1.00e+00h  1
 151 -1.3471000e-01 1.10e+00 1.16e+01  -6.0 4.67e+02  -8.8 7.38e-02 4.25e-02h  2
 152 -1.3474066e-01 9.76e-01 5.08e+01  -6.0 8.70e+01  -8.4 3.76e-01 1.15e-01h  2
 153 -1.3480609e-01 2.46e+00 3.36e+01  -6.0 2.04e+02  -8.9 4.51e-01 5.15e-01h  1
 154 -1.3495263e-01 4.96e-01 1.43e+01  -6.0 7.26e+01  -8.4 7.27e-01 8.14e-01h  1
 155 -1.3509533e-01 7.69e-01 1.13e+01  -6.0 2.15e+02  -8.9 1.00e+00 1.00e+00h  1
 156 -1.3524307e-01 5.17e+00 1.32e+02  -6.0 6.75e+02  -9.4 4.14e-01 8.13e-01h  1
 157 -1.3521513e-01 1.83e+00 2.47e+01  -6.0 2.79e+02  -9.9 3.57e-01 8.30e-01h  1
 158 -1.3529055e-01 8.78e+00 8.08e+01  -6.0 9.55e+02 -10.3 2.35e-01 9.12e-01h  1
 159 -1.3530723e-01 5.35e+00 5.96e+01  -6.0 8.30e+02 -10.8 1.76e-01 3.92e-01h  1
iter    objective    inf_pr   inf_du lg(mu)  ||d||  lg(rg) alpha_du alpha_pr  ls
 160 -1.3545932e-01 4.62e+00 2.80e+01  -6.0 6.74e+02  -9.5 3.43e-01 8.08e-01h  1
 161 -1.3580845e-01 2.80e+01 2.10e+01  -6.0 1.59e+03 -10.0 7.91e-01 9.51e-01h  1
 162 -1.3614944e-01 3.61e+01 4.20e+01  -6.0 1.66e+03 -10.4 1.68e-01 1.00e+00h  1
 163 -1.3616995e-01 3.44e+01 3.26e+01  -6.0 3.65e+03 -10.9 2.87e-01 5.54e-02h  1
 164 -1.3649151e-01 4.92e+01 4.58e+01  -6.0 4.46e+03    -  3.25e-02 4.34e-01H  1
 165 -1.3651918e-01 4.90e+01 3.44e+02  -6.0 1.61e+04    -  8.59e-05 7.27e-03h  1
 166 -1.3631053e-01 2.16e+01 2.93e+02  -6.0 3.55e+02    -  8.21e-01 5.68e-01h  1
 167 -1.3630699e-01 2.08e+01 2.91e+02  -6.0 2.39e+02  -8.7 2.83e-02 3.98e-02h  1
 168 -1.3641190e-01 1.23e+01 2.49e+02  -6.0 3.36e+01  -8.3 2.88e-01 4.05e-01f  1
 169 -1.3639508e-01 1.56e-01 3.04e+02  -6.0 6.45e+01  -8.7 3.60e-02 1.00e+00h  1
iter    objective    inf_pr   inf_du lg(mu)  ||d||  lg(rg) alpha_du alpha_pr  ls
 170 -1.3641794e-01 1.67e+00 2.26e+02  -6.0 1.34e+03    -  2.68e-01 2.47e-01h  1
 171 -1.3641958e-01 1.54e+00 2.30e+02  -6.0 4.14e+02  -9.2 5.15e-04 7.36e-02H  1
 172 -1.3643588e-01 6.81e+00 2.12e+02  -6.0 1.63e+03    -  7.55e-02 7.50e-02h  2
 173 -1.3640771e-01 1.19e+01 5.63e+01  -6.0 2.54e+02    -  8.61e-01 1.00e+00h  1
 174 -1.3636073e-01 5.99e+00 2.64e+01  -6.0 1.67e+02  -9.7 1.00e+00 4.85e-01h  1
 175 -1.3636540e-01 1.70e+00 1.18e+00  -6.0 3.37e+02 -10.2 1.00e+00 1.00e+00h  1
 176 -1.3644243e-01 3.40e+00 4.20e+00  -6.0 4.60e+02 -10.6 8.04e-01 1.00e+00h  1
 177 -1.3645433e-01 8.08e-01 5.72e-01  -6.0 2.12e+02 -10.2 1.00e+00 1.00e+00h  1
 178 -1.3649973e-01 2.91e+00 9.78e-01  -6.0 1.20e+03 -10.7 1.00e+00 1.00e+00H  1
 179 -1.3649096e-01 1.19e+00 1.30e+00  -6.0 2.48e+02 -10.3 8.48e-01 5.00e-01h  2
iter    objective    inf_pr   inf_du lg(mu)  ||d||  lg(rg) alpha_du alpha_pr  ls
 180 -1.3647787e-01 2.85e-01 1.85e-01  -6.0 1.29e+02  -9.8 1.00e+00 1.00e+00h  1
 181 -1.3649222e-01 1.71e+00 2.01e-01  -6.0 3.35e+02 -10.3 1.00e+00 1.00e+00H  1
 182 -1.3652204e-01 2.23e-01 2.71e+00  -6.0 1.65e+03 -10.8 1.00e+00 8.67e-01H  1
 183 -1.3651330e-01 5.05e-01 5.21e+00  -6.0 4.53e+02    -  2.47e-01 1.00e+00H  1
 184 -1.3651148e-01 3.91e-01 2.00e+01  -6.0 8.43e+03 -11.3 6.48e-02 2.66e-02h  4
 185 -1.3647340e-01 6.60e-02 5.91e-01  -6.0 6.05e+01  -9.0 1.00e+00 1.00e+00h  1
 186 -1.3647527e-01 4.44e-01 1.25e+01  -6.0 5.95e+02    -  6.67e-01 2.50e-01h  3
 187 -1.3649860e-01 2.84e-01 1.01e+01  -6.0 1.18e+02  -9.5 1.00e+00 5.00e-01h  2
 188 -1.3651308e-01 1.48e+00 1.64e+00  -6.0 8.79e+02    -  1.00e+00 1.00e+00H  1
 189 -1.3649564e-01 2.71e-01 1.60e-01  -6.0 1.26e+02 -10.0 1.00e+00 1.00e+00h  1
iter    objective    inf_pr   inf_du lg(mu)  ||d||  lg(rg) alpha_du alpha_pr  ls
 190 -1.3651451e-01 1.89e+00 6.26e-02  -6.0 5.04e+02 -10.5 1.00e+00 1.00e+00H  1
 191 -1.3650345e-01 8.23e-01 3.26e+00  -6.0 1.67e+02 -10.0 1.00e+00 5.00e-01h  2
 192 -1.3653057e-01 1.08e-02 1.55e+00  -6.0 2.78e+03 -10.5 1.00e+00 9.64e-01H  1
 193 -1.3652901e-01 1.62e-02 1.46e+00  -6.0 6.21e+02    -  5.50e-02 6.25e-02f  5
 194 -1.3652634e-01 2.98e+00 5.73e-01  -6.0 4.28e+02 -10.1 1.00e+00 1.00e+00H  1
 195 -1.3651574e-01 1.11e+00 3.75e+00  -6.0 1.75e+03    -  3.08e-01 2.50e-01h  3
 196 -1.3649910e-01 2.31e+00 2.27e-01  -6.0 1.77e+03 -10.6 1.00e+00 1.00e+00H  1
 197 -1.3648800e-01 4.94e-01 4.99e+00  -6.0 3.85e+02    -  1.00e+00 5.00e-01h  2
 198 -1.3647791e-01 2.58e-01 1.65e-01  -6.0 1.20e+02 -11.1 1.00e+00 1.00e+00h  1
 199 -1.3648088e-01 2.24e-01 4.53e+00  -6.0 1.44e+02    -  1.00e+00 5.00e-01h  2
iter    objective    inf_pr   inf_du lg(mu)  ||d||  lg(rg) alpha_du alpha_pr  ls
 200 -1.3648390e-01 1.45e-03 1.10e-02  -6.0 9.13e+00    -  1.00e+00 1.00e+00h  1
 201 -1.3648409e-01 6.27e-04 2.00e-04  -6.0 5.86e+00    -  1.00e+00 1.00e+00h  1
 202 -1.3648409e-01 1.92e-06 5.46e-07  -6.0 3.23e-01    -  1.00e+00 1.00e+00h  1
 203 -1.3711036e-01 1.00e+01 3.30e+01  -7.5 4.26e+03    -  1.56e-01 1.88e-01h  1
 204 -1.3718610e-01 1.00e+01 2.27e+01  -7.5 4.97e+03    -  6.10e-02 2.39e-02h  1
 205 -1.3756911e-01 1.22e+01 3.10e+01  -7.5 3.91e+03    -  3.28e-01 2.17e-01h  1
 206 -1.3780125e-01 2.48e+01 2.96e+01  -7.5 6.07e+03    -  2.93e-02 1.92e-01h  1
 207 -1.3784561e-01 2.36e+01 2.89e+01  -7.5 2.46e+03    -  1.84e-01 5.22e-02h  1
 208 -1.3785028e-01 2.34e+01 3.92e+01  -7.5 1.06e+02  -8.8 8.25e-02 8.22e-03h  1
 209 -1.3805087e-01 1.34e+01 3.45e+01  -7.5 2.38e+02  -9.3 4.71e-01 4.27e-01f  1
iter    objective    inf_pr   inf_du lg(mu)  ||d||  lg(rg) alpha_du alpha_pr  ls
 210 -1.3816065e-01 1.11e+01 3.17e+01  -7.5 9.29e+02  -9.8 3.28e-02 1.77e-01h  1
 211 -1.3822326e-01 1.02e+01 4.69e+01  -7.5 2.70e+03    -  3.44e-01 9.89e-02h  1
 212 -1.3823152e-01 1.00e+01 4.94e+01  -7.5 1.12e+03  -9.4 3.48e-02 1.16e-02h  1
 213 -1.3826425e-01 9.61e+00 3.97e+01  -7.5 9.60e+03    -  2.09e-05 5.25e-02f  1
 214 -1.3827295e-01 9.49e+00 4.29e+01  -7.5 2.61e+03  -9.8 5.54e-02 1.47e-02f  1
 215 -1.3839701e-01 4.98e+01 2.32e+01  -7.5 7.04e+03    -  6.17e-05 2.21e-01f  1
 216 -1.3848341e-01 4.02e+01 6.17e+02  -7.5 1.49e+03    -  3.06e-04 1.94e-01h  1
 217 -1.3869100e-01 1.18e+01 1.27e+02  -7.5 5.67e+02 -10.3 1.85e-01 7.90e-01h  1
 218 -1.3872787e-01 1.05e+01 1.12e+02  -7.5 1.37e+03    -  4.93e-01 1.14e-01h  1
 219 -1.3879347e-01 8.16e+00 1.23e+02  -7.5 1.29e+03    -  6.63e-01 2.25e-01h  1
iter    objective    inf_pr   inf_du lg(mu)  ||d||  lg(rg) alpha_du alpha_pr  ls
 220 -1.3896278e-01 7.64e+00 3.41e+01  -7.5 1.15e+03    -  1.65e-01 6.06e-01h  1
 221 -1.3898132e-01 7.07e+00 3.15e+01  -7.5 6.38e+02    -  8.72e-02 7.51e-02h  1
 222 -1.3899403e-01 6.69e+00 3.96e+01  -7.5 1.63e+03 -10.8 2.65e-02 5.44e-02h  1
 223 -1.3900387e-01 6.42e+00 1.84e+02  -7.5 6.29e+02    -  3.69e-01 4.12e-02h  1
 224 -1.3923359e-01 2.23e+00 3.46e+02  -7.5 3.25e+02 -11.3 2.58e-01 9.81e-01h  1
 225 -1.3929614e-01 2.14e+00 7.41e+02  -7.5 5.72e+02    -  5.41e-03 2.74e-01h  1
 226 -1.3930161e-01 2.12e+00 6.94e+02  -7.5 7.22e+03    -  3.03e-02 1.72e-02f  1
 227 -1.3945956e-01 4.21e+00 1.97e+03  -7.5 5.79e+02    -  2.96e-02 7.11e-01h  1
 228 -1.3948675e-01 3.95e+00 1.84e+03  -7.5 2.69e+03    -  9.91e-02 1.20e-01h  1
 229 -1.3951839e-01 5.83e+01 1.82e+03  -7.5 1.61e+04 -11.7 8.99e-02 1.35e-01h  1
iter    objective    inf_pr   inf_du lg(mu)  ||d||  lg(rg) alpha_du alpha_pr  ls
 230 -1.3954885e-01 5.14e+01 5.10e+02  -7.5 1.84e+03 -12.2 4.11e-01 1.33e-01h  1
 231 -1.3957302e-01 7.51e+01 7.08e+02  -7.5 1.47e+04 -12.7 1.51e-01 1.01e-01h  1
 232 -1.3966810e-01 4.75e+01 1.42e+02  -7.5 1.49e+03    -  3.03e-01 3.97e-01h  1
 233 -1.3967880e-01 4.53e+01 3.23e+03  -7.5 4.84e+03    -  1.32e-01 4.55e-02h  1
 234 -1.3968378e-01 5.89e+01 3.25e+03  -7.5 3.06e+04    -  3.66e-03 3.37e-02h  1
 235 -1.3969448e-01 5.58e+01 3.06e+03  -7.5 6.46e+03    -  3.44e-02 5.63e-02h  1
 236 -1.3969544e-01 5.64e+01 3.19e+03  -7.5 4.02e+04    -  2.86e-02 6.68e-03h  1
 237 -1.3969584e-01 5.60e+01 3.02e+03  -7.5 8.07e+03    -  1.45e-03 6.49e-03h  1
 238 -1.3973126e-01 9.54e+01 7.25e+02  -7.5 2.99e+03    -  8.97e-02 8.28e-01H  1
 239 -1.3973024e-01 9.55e+01 1.16e+03  -7.5 1.69e+04    -  2.65e-03 2.91e-02h  3
iter    objective    inf_pr   inf_du lg(mu)  ||d||  lg(rg) alpha_du alpha_pr  ls
 240 -1.3973303e-01 9.28e+01 1.06e+03  -7.5 6.56e+03 -11.4 8.00e-02 3.47e-02h  1
 241 -1.3973490e-01 9.29e+01 6.77e+02  -7.5 2.89e+04    -  5.83e-02 9.59e-03h  1
 242 -1.3977428e-01 7.35e+01 2.96e+04  -7.5 2.59e+03    -  2.82e-02 8.48e-01h  1
 243 -1.3977161e-01 7.18e+01 2.88e+04  -7.5 5.15e+03    -  4.59e-02 2.71e-02h  1
 244 -1.3973976e-01 3.34e+01 4.46e+03  -7.5 1.55e+03    -  5.17e-02 1.00e+00h  1
 245 -1.3973804e-01 1.46e+00 1.60e+03  -7.5 2.31e+01  -9.1 8.18e-01 9.57e-01h  1
 246 -1.3974300e-01 2.70e-02 2.06e+01  -7.5 4.21e+01  -9.6 1.00e+00 1.00e+00h  1
 247 -1.3975454e-01 9.54e+00 1.94e+01  -7.5 6.71e+04    -  3.16e-02 1.32e-02h  1
 248 -1.3975356e-01 3.21e+00 5.76e-01  -7.5 3.54e+02 -10.1 1.00e+00 1.00e+00h  1
 249 -1.3975350e-01 2.75e-02 5.81e-01  -7.5 3.65e+01  -8.8 6.04e-01 1.00e+00h  1
iter    objective    inf_pr   inf_du lg(mu)  ||d||  lg(rg) alpha_du alpha_pr  ls
 250 -1.3975387e-01 1.21e-02 3.75e-03  -7.5 1.60e+01  -9.2 1.00e+00 1.00e+00h  1
 251 -1.3975508e-01 7.45e-02 3.29e-02  -7.5 4.73e+01  -9.7 1.00e+00 1.00e+00h  1
 252 -1.3976184e-01 8.58e-01 8.84e-01  -7.5 9.03e+03    -  4.27e-02 2.70e-02h  1
 253 -1.3980951e-01 6.70e+01 7.87e+01  -7.5 1.50e+04    -  1.58e-02 1.42e-01h  1
 254 -1.3978363e-01 6.02e+01 7.24e+02  -7.5 2.96e+03 -10.2 1.56e-01 3.47e-01h  1
 255 -1.3978417e-01 6.01e+01 6.90e+02  -7.5 8.88e+03 -10.7 7.72e-03 1.27e-03h  1
 256 -1.3978734e-01 5.65e+01 6.88e+02  -7.5 1.32e+03 -10.2 1.77e-01 6.10e-02f  1
 257 -1.3981002e-01 5.63e+01 7.87e+02  -7.5 5.48e+03 -10.7 3.93e-02 1.16e-01h  1
 258 -1.3982547e-01 5.71e+01 5.71e+02  -7.5 3.05e+03 -11.2 1.81e-01 3.84e-01h  1
 259 -1.3983254e-01 5.39e+01 4.20e+02  -7.5 3.31e+03 -11.7 1.46e-01 6.65e-02h  1
iter    objective    inf_pr   inf_du lg(mu)  ||d||  lg(rg) alpha_du alpha_pr  ls
 260 -1.3983325e-01 5.35e+01 8.05e+02  -7.5 1.88e+04    -  1.64e-01 6.64e-03h  1
 261 -1.3984221e-01 4.25e+01 5.48e+02  -7.5 1.76e+03    -  2.76e-01 2.96e-01h  1
 262 -1.3984511e-01 3.88e+01 4.88e+02  -7.5 1.73e+03    -  8.77e-02 1.02e-01h  1
 263 -1.3987148e-01 5.34e+01 2.69e+02  -7.5 1.72e+03    -  1.12e-01 1.00e+00h  1
 264 -1.3988331e-01 3.93e+01 1.53e+03  -7.5 1.58e+03    -  1.27e-02 4.86e-01h  1
 265 -1.3986973e-01 3.74e+01 8.71e+03  -7.5 2.39e+03    -  6.17e-03 2.96e-01h  1
 266 -1.3987267e-01 3.34e+01 7.75e+03  -7.5 7.45e+02    -  3.86e-01 1.09e-01h  1
 267 -1.3987256e-01 3.03e+01 7.02e+03  -7.5 4.13e+01    -  4.64e-01 9.17e-02h  1
 268 -1.3987062e-01 1.38e-02 2.23e+01  -7.5 2.88e+01    -  6.66e-01 1.00e+00h  1
 269 -1.3988400e-01 1.17e+01 5.55e+01  -7.5 1.11e+04    -  6.92e-02 7.01e-02h  1
iter    objective    inf_pr   inf_du lg(mu)  ||d||  lg(rg) alpha_du alpha_pr  ls
 270 -1.3988475e-01 1.71e-02 2.77e+00  -7.5 2.59e+01    -  8.48e-01 1.00e+00h  1
 271 -1.3988520e-01 2.13e-02 6.85e-02  -7.5 3.26e+01    -  1.00e+00 1.00e+00h  1
 272 -1.3988512e-01 1.87e-04 1.32e-01  -7.5 3.19e+00    -  8.42e-01 1.00e+00h  1
 273 -1.3988513e-01 1.22e-06 4.56e-05  -7.5 2.46e-01    -  1.00e+00 1.00e+00h  1
 274 -1.3988513e-01 6.39e-09 8.14e-08  -7.5 1.78e-02    -  1.00e+00 1.00e+00h  1
 275 -1.3988929e-01 1.93e-01 2.32e+00  -9.0 2.25e+02    -  3.70e-01 4.44e-01h  1
 276 -1.3989846e-01 4.67e+01 1.51e+02  -9.0 5.07e+04    -  4.82e-02 3.02e-02h  1
 277 -1.3989999e-01 4.70e+01 1.57e+02  -9.0 4.03e+04    -  2.30e-02 5.39e-03h  1
 278 -1.3991211e-01 5.13e+01 1.73e+02  -9.0 2.53e+03    -  2.10e-02 6.22e-01h  1
 279 -1.3991251e-01 5.09e+01 1.71e+02  -9.0 4.26e+03    -  4.18e-04 8.12e-03h  1
iter    objective    inf_pr   inf_du lg(mu)  ||d||  lg(rg) alpha_du alpha_pr  ls
 280 -1.3991804e-01 4.04e+01 8.25e+01  -9.0 1.51e+03    -  1.49e-02 2.73e-01h  1
 281 -1.3991925e-01 3.95e+01 8.02e+01  -9.0 3.08e+03    -  1.57e-02 2.66e-02h  1
 282 -1.3992711e-01 3.26e+01 5.65e+01  -9.0 1.64e+03    -  3.23e-01 2.90e-01h  1
 283 -1.3992966e-01 3.06e+01 5.25e+01  -9.0 1.69e+03    -  4.57e-02 7.09e-02h  1
 284 -1.3993357e-01 2.82e+01 1.51e+02  -9.0 1.70e+03    -  2.18e-01 9.46e-02h  1
 285 -1.3995125e-01 2.55e+01 5.30e+04  -9.0 1.62e+03    -  4.76e-03 3.95e-01h  1
 286 -1.3995195e-01 2.53e+01 5.26e+04  -9.0 1.72e+03    -  4.28e-01 8.27e-03h  1
 287 -1.3995464e-01 2.44e+01 5.07e+04  -9.0 3.00e+03    -  2.00e-02 3.60e-02h  1
 288 -1.3995575e-01 2.37e+01 4.91e+04  -9.0 5.49e+03    -  5.34e-03 3.13e-02h  1
 289 -1.3995736e-01 2.23e+01 4.62e+04  -9.0 8.36e+02    -  3.38e-02 5.96e-02h  1
iter    objective    inf_pr   inf_du lg(mu)  ||d||  lg(rg) alpha_du alpha_pr  ls
 290 -1.3996385e-01 1.74e+01 3.58e+04  -9.0 2.56e+02    -  1.11e-01 2.23e-01h  1
 291 -1.3998252e-01 7.58e+00 1.43e+04  -9.0 2.70e+02    -  6.61e-02 6.00e-01h  1
 292 -1.4002290e-01 1.68e+00 6.07e+02  -9.0 2.56e+02    -  6.46e-01 1.00e+00h  1
 293 -1.4003599e-01 1.25e+00 5.82e+02  -9.0 2.77e+02    -  3.27e-01 1.81e-01h  1
 294 -1.4005731e-01 1.08e+00 3.30e+03  -9.0 3.25e+02    -  4.81e-01 2.35e-01h  1
 295r-1.4005731e-01 1.08e+00 1.00e+03  -0.1 0.00e+00    -  0.00e+00 1.12e-08R  2
 296r-1.4005592e-01 1.08e+00 7.68e+03  -0.1 4.81e+05    -  7.87e-09 3.79e-09f  1
 297 -1.4005593e-01 1.08e+00 9.84e+03  -9.0 5.09e+01    -  1.09e-06 4.16e-03h  1
 298 -1.4005396e-01 1.07e+00 1.13e+04  -9.0 7.59e+02    -  2.99e-05 8.33e-03h  1
 299 -1.4003545e-01 9.40e-01 4.97e+05  -9.0 1.46e+02    -  9.21e-05 1.30e-01h  1
iter    objective    inf_pr   inf_du lg(mu)  ||d||  lg(rg) alpha_du alpha_pr  ls
 300 -1.4003094e-01 8.90e-01 4.84e+05  -9.0 9.79e+01    -  3.00e-02 5.32e-02h  1
 301 -1.3997277e-01 2.85e-01 2.25e+06  -9.0 1.00e+02    -  1.14e-01 6.82e-01h  1
 302 -1.3994704e-01 1.67e-01 1.49e+07  -9.0 1.19e+02    -  1.54e-01 5.84e-01h  1
 303 -1.3994726e-01 1.54e-01 1.38e+07  -9.0 2.37e+01    -  7.21e-01 8.16e-02h  1
 304 -1.3989324e-01 1.63e-01 3.75e+07  -9.0 8.80e+01    -  8.39e-04 9.81e-01h  1
 305 -1.3989458e-01 1.62e-01 3.72e+07  -9.0 1.50e+01  -3.8 2.54e-02 7.15e-03h  1
 306 -1.3989627e-01 1.60e-01 3.67e+07  -9.0 4.32e+01  -4.3 2.63e-02 1.33e-02h  1
In iteration 306, 1 Slack too small, adjusting variable bound
 307 -1.3990372e-01 1.46e-01 3.36e+07  -9.0 1.30e+02  -4.8 1.23e-01 8.67e-02h  1
 308 -1.3990610e-01 1.28e-01 2.93e+07  -9.0 3.10e+02  -5.3 1.93e-01 1.25e-01h  1
 309 -1.3990574e-01 1.28e-01 2.93e+07  -9.0 2.72e+03    -  9.73e-03 5.32e-04h  7
iter    objective    inf_pr   inf_du lg(mu)  ||d||  lg(rg) alpha_du alpha_pr  ls
 310 -1.3990538e-01 1.28e-01 2.93e+07  -9.0 2.77e+03    -  2.18e-02 5.16e-04h  7
 311 -1.3990464e-01 1.27e-01 2.93e+07  -9.0 3.16e+03    -  3.40e-04 4.34e-04h  7
 312 -1.3990401e-01 1.27e-01 2.93e+07  -9.0 2.96e+03    -  6.63e-04 4.67e-04h  7
 313 -1.3990385e-01 1.27e-01 2.93e+07  -9.0 2.79e+03    -  1.03e-01 1.25e-04h  9
 314r-1.3990385e-01 1.27e-01 1.00e+03  -1.2 0.00e+00    -  0.00e+00 4.25e-07R 14
 315r-1.3990451e-01 1.27e-01 1.00e+03  -1.2 4.29e+04    -  5.42e-08 4.89e-08f  1
 316 -1.3990738e-01 1.23e-01 2.72e+02  -9.0 7.81e+01    -  1.05e-01 3.51e-02h  1
 317 -1.3990807e-01 1.17e-01 5.28e+02  -9.0 8.02e+01    -  3.87e-03 5.03e-02h  1
 318 -1.3990820e-01 1.16e-01 5.42e+02  -9.0 5.98e+01    -  1.04e-04 6.12e-03f  1
 319 -1.3989354e-01 7.37e-04 2.67e+03  -9.0 3.13e+00    -  2.32e-03 9.94e-01h  1
iter    objective    inf_pr   inf_du lg(mu)  ||d||  lg(rg) alpha_du alpha_pr  ls
 320 -1.3989370e-01 7.28e-04 2.47e+03  -9.0 1.80e+00    -  7.55e-01 1.17e-02f  1
 321 -1.3989393e-01 6.40e-04 2.16e+03  -9.0 2.57e-01    -  1.46e-01 1.21e-01h  1
 322 -1.3989567e-01 1.39e-05 3.62e+02  -9.0 2.75e-01    -  9.93e-01 9.78e-01f  1
 323 -1.3993615e-01 8.50e-03 9.53e+04  -9.0 5.68e+01    -  2.73e-05 3.32e-01h  1
 324 -1.3998984e-01 1.67e-01 1.05e+05  -9.0 1.90e+02    -  2.16e-01 1.00e+00F  1
 325 -1.4002776e-01 1.49e-01 8.78e+04  -9.0 1.23e+02    -  1.25e-01 1.68e-01h  1
 326 -1.4007143e-01 1.06e-01 6.32e+04  -9.0 6.89e+01    -  2.89e-01 2.93e-01h  1
 327 -1.4007560e-01 8.93e-02 5.33e+04  -9.0 1.40e+02    -  6.58e-01 1.57e-01h  1
 328 -1.4009508e-01 2.89e-01 3.93e+04  -9.0 4.33e+02    -  4.98e-01 2.63e-01h  1
 329 -1.4009978e-01 2.98e-01 3.78e+04  -9.0 7.92e+02    -  6.27e-01 3.88e-02h  1
iter    objective    inf_pr   inf_du lg(mu)  ||d||  lg(rg) alpha_du alpha_pr  ls
 330 -1.4011609e-01 2.24e-01 7.33e+03  -9.0 1.08e+02    -  8.15e-01 8.06e-01h  1
 331 -1.4012095e-01 3.15e-01 1.08e+03  -9.0 1.33e+02    -  8.23e-01 8.53e-01h  1
 332 -1.4012054e-01 3.02e-01 1.03e+03  -9.0 1.56e+02    -  2.25e-02 4.36e-02h  1
 333 -1.4011439e-01 3.15e-02 4.78e+02  -9.0 1.22e+02    -  1.16e-02 1.00e+00H  1
 334 -1.4011440e-01 2.85e-02 4.33e+02  -9.0 1.33e+01    -  9.94e-01 9.37e-02h  1
 335 -1.4011446e-01 6.28e-03 5.13e-02  -9.0 1.80e+01    -  1.00e+00 1.00e+00f  1
 336 -1.4011445e-01 3.95e-06 7.74e-07  -9.0 4.56e-01    -  1.00e+00 1.00e+00h  1
 337 -1.4011445e-01 2.83e-10 4.45e-14  -9.0 1.07e-04    -  1.00e+00 1.00e+00h  1

Number of Iterations....: 337

                                   (scaled)                 (unscaled)
Objective...............:  -1.4011444980093266e-01   -1.4011444980093266e-01
Dual infeasibility......:   4.4450554348429705e-14    4.4450554348429705e-14
Constraint violation....:   2.8307201168590451e-10    2.8307201168590451e-10
Complementarity.........:   9.0909091450201013e-10    9.0909091450201013e-10
Overall NLP error.......:   9.0909091450201013e-10    9.0909091450201013e-10


Number of objective function evaluations             = 524
Number of objective gradient evaluations             = 338
Number of equality constraint evaluations            = 524
Number of inequality constraint evaluations          = 525
Number of equality constraint Jacobian evaluations   = 343
Number of inequality constraint Jacobian evaluations = 343
Number of Lagrangian Hessian evaluations             = 337
Total CPU secs in IPOPT (w/o function evaluations)   =    151.061
Total CPU secs in NLP function evaluations           =      5.757

EXIT: Optimal Solution Found.
